(set-option :produce-models true)
(set-logic QF_LRA)
(set-info :notes | Strip-packing problem.|)
(declare-fun x0 () Real)
(declare-fun y0 () Real)
(declare-fun x1 () Real)
(declare-fun y1 () Real)
(declare-fun x2 () Real)
(declare-fun y2 () Real)
(declare-fun x3 () Real)
(declare-fun y3 () Real)
(declare-fun x4 () Real)
(declare-fun y4 () Real)
(declare-fun x5 () Real)
(declare-fun y5 () Real)
(declare-fun x6 () Real)
(declare-fun y6 () Real)
(declare-fun x7 () Real)
(declare-fun y7 () Real)
(declare-fun x8 () Real)
(declare-fun y8 () Real)
(declare-fun z () Real)
(declare-fun c () Real)
(assert (and (= c z) (and (>= x0 0) 
(and (>= y0 0) 
(and (>= x1 0) 
(and (>= y1 0) 
(and (>= x2 0) 
(and (>= y2 0) 
(and (>= x3 0) 
(and (>= y3 0) 
(and (>= x4 0) 
(and (>= y4 0) 
(and (>= x5 0) 
(and (>= y5 0) 
(and (>= x6 0) 
(and (>= y6 0) 
(and (>= x7 0) 
(and (>= y7 0) 
(and (>= x8 0) 
(and (>= y8 0) 
(and (>= z 0) 
(and (>= c 0) 
(and (<= (+ x0 0.3076192178) z) 
(and (<= 0.8449793304 y0) 
(and (<= y0 1.5) 
(and (<= x0 (- 2.6484282896 0.3076192178)) 
(and (>= x0 0) 
(and (<= (+ x1 0.649081066) z) 
(and (<= 0.799455627 y1) 
(and (<= y1 1.5) 
(and (<= x1 (- 2.6484282896 0.649081066)) 
(and (>= x1 0) 
(and (<= (+ x2 0.8370641676) z) 
(and (<= 0.7541067919 y2) 
(and (<= y2 1.5) 
(and (<= x2 (- 2.6484282896 0.8370641676)) 
(and (>= x2 0) 
(and (<= (+ x3 0.8546638382) z) 
(and (<= 0.6504887447 y3) 
(and (<= y3 1.5) 
(and (<= x3 (- 2.6484282896 0.8546638382)) 
(and (>= x3 0) 
(and (<= (+ x4 0.1719438159) z) 
(and (<= 0.6321761562 y4) 
(and (<= y4 1.5) 
(and (<= x4 (- 2.6484282896 0.1719438159)) 
(and (>= x4 0) 
(and (<= (+ x5 0.1823111915) z) 
(and (<= 0.6178741224 y5) 
(and (<= y5 1.5) 
(and (<= x5 (- 2.6484282896 0.1823111915)) 
(and (>= x5 0) 
(and (<= (+ x6 0.6909444319) z) 
(and (<= 0.5900217482 y6) 
(and (<= y6 1.5) 
(and (<= x6 (- 2.6484282896 0.6909444319)) 
(and (>= x6 0) 
(and (<= (+ x7 0.0255905187) z) 
(and (<= 0.5089242256 y7) 
(and (<= y7 1.5) 
(and (<= x7 (- 2.6484282896 0.0255905187)) 
(and (>= x7 0) 
(and (<= (+ x8 0.7402855025) z) 
(and (<= 0.0969269463 y8) 
(and (<= y8 1.5) 
(and (<= x8 (- 2.6484282896 0.7402855025)) 
(and (>= x8 0) 
(and (<= c 2.6484282896) 
(and (or (<= (+ x0 0.3076192178) x1) (or (<= (+ x1 0.649081066) x0) (or (>= (- y0 0.8449793304) y1) (or (>= (- y1 0.799455627) y0))))) 
(and (or (<= (+ x0 0.3076192178) x2) (or (<= (+ x2 0.8370641676) x0) (or (>= (- y0 0.8449793304) y2) (or (>= (- y2 0.7541067919) y0))))) 
(and (or (<= (+ x0 0.3076192178) x3) (or (<= (+ x3 0.8546638382) x0) (or (>= (- y0 0.8449793304) y3) (or (>= (- y3 0.6504887447) y0))))) 
(and (or (<= (+ x0 0.3076192178) x4) (or (<= (+ x4 0.1719438159) x0) (or (>= (- y0 0.8449793304) y4) (or (>= (- y4 0.6321761562) y0))))) 
(and (or (<= (+ x0 0.3076192178) x5) (or (<= (+ x5 0.1823111915) x0) (or (>= (- y0 0.8449793304) y5) (or (>= (- y5 0.6178741224) y0))))) 
(and (or (<= (+ x0 0.3076192178) x6) (or (<= (+ x6 0.6909444319) x0) (or (>= (- y0 0.8449793304) y6) (or (>= (- y6 0.5900217482) y0))))) 
(and (or (<= (+ x0 0.3076192178) x7) (or (<= (+ x7 0.0255905187) x0) (or (>= (- y0 0.8449793304) y7) (or (>= (- y7 0.5089242256) y0))))) 
(and (or (<= (+ x0 0.3076192178) x8) (or (<= (+ x8 0.7402855025) x0) (or (>= (- y0 0.8449793304) y8) (or (>= (- y8 0.0969269463) y0))))) 
(and (or (<= (+ x1 0.649081066) x2) (or (<= (+ x2 0.8370641676) x1) (or (>= (- y1 0.799455627) y2) (or (>= (- y2 0.7541067919) y1))))) 
(and (or (<= (+ x1 0.649081066) x3) (or (<= (+ x3 0.8546638382) x1) (or (>= (- y1 0.799455627) y3) (or (>= (- y3 0.6504887447) y1))))) 
(and (or (<= (+ x1 0.649081066) x4) (or (<= (+ x4 0.1719438159) x1) (or (>= (- y1 0.799455627) y4) (or (>= (- y4 0.6321761562) y1))))) 
(and (or (<= (+ x1 0.649081066) x5) (or (<= (+ x5 0.1823111915) x1) (or (>= (- y1 0.799455627) y5) (or (>= (- y5 0.6178741224) y1))))) 
(and (or (<= (+ x1 0.649081066) x6) (or (<= (+ x6 0.6909444319) x1) (or (>= (- y1 0.799455627) y6) (or (>= (- y6 0.5900217482) y1))))) 
(and (or (<= (+ x1 0.649081066) x7) (or (<= (+ x7 0.0255905187) x1) (or (>= (- y1 0.799455627) y7) (or (>= (- y7 0.5089242256) y1))))) 
(and (or (<= (+ x1 0.649081066) x8) (or (<= (+ x8 0.7402855025) x1) (or (>= (- y1 0.799455627) y8) (or (>= (- y8 0.0969269463) y1))))) 
(and (or (<= (+ x2 0.8370641676) x3) (or (<= (+ x3 0.8546638382) x2) (or (>= (- y2 0.7541067919) y3) (or (>= (- y3 0.6504887447) y2))))) 
(and (or (<= (+ x2 0.8370641676) x4) (or (<= (+ x4 0.1719438159) x2) (or (>= (- y2 0.7541067919) y4) (or (>= (- y4 0.6321761562) y2))))) 
(and (or (<= (+ x2 0.8370641676) x5) (or (<= (+ x5 0.1823111915) x2) (or (>= (- y2 0.7541067919) y5) (or (>= (- y5 0.6178741224) y2))))) 
(and (or (<= (+ x2 0.8370641676) x6) (or (<= (+ x6 0.6909444319) x2) (or (>= (- y2 0.7541067919) y6) (or (>= (- y6 0.5900217482) y2))))) 
(and (or (<= (+ x2 0.8370641676) x7) (or (<= (+ x7 0.0255905187) x2) (or (>= (- y2 0.7541067919) y7) (or (>= (- y7 0.5089242256) y2))))) 
(and (or (<= (+ x2 0.8370641676) x8) (or (<= (+ x8 0.7402855025) x2) (or (>= (- y2 0.7541067919) y8) (or (>= (- y8 0.0969269463) y2))))) 
(and (or (<= (+ x3 0.8546638382) x4) (or (<= (+ x4 0.1719438159) x3) (or (>= (- y3 0.6504887447) y4) (or (>= (- y4 0.6321761562) y3))))) 
(and (or (<= (+ x3 0.8546638382) x5) (or (<= (+ x5 0.1823111915) x3) (or (>= (- y3 0.6504887447) y5) (or (>= (- y5 0.6178741224) y3))))) 
(and (or (<= (+ x3 0.8546638382) x6) (or (<= (+ x6 0.6909444319) x3) (or (>= (- y3 0.6504887447) y6) (or (>= (- y6 0.5900217482) y3))))) 
(and (or (<= (+ x3 0.8546638382) x7) (or (<= (+ x7 0.0255905187) x3) (or (>= (- y3 0.6504887447) y7) (or (>= (- y7 0.5089242256) y3))))) 
(and (or (<= (+ x3 0.8546638382) x8) (or (<= (+ x8 0.7402855025) x3) (or (>= (- y3 0.6504887447) y8) (or (>= (- y8 0.0969269463) y3))))) 
(and (or (<= (+ x4 0.1719438159) x5) (or (<= (+ x5 0.1823111915) x4) (or (>= (- y4 0.6321761562) y5) (or (>= (- y5 0.6178741224) y4))))) 
(and (or (<= (+ x4 0.1719438159) x6) (or (<= (+ x6 0.6909444319) x4) (or (>= (- y4 0.6321761562) y6) (or (>= (- y6 0.5900217482) y4))))) 
(and (or (<= (+ x4 0.1719438159) x7) (or (<= (+ x7 0.0255905187) x4) (or (>= (- y4 0.6321761562) y7) (or (>= (- y7 0.5089242256) y4))))) 
(and (or (<= (+ x4 0.1719438159) x8) (or (<= (+ x8 0.7402855025) x4) (or (>= (- y4 0.6321761562) y8) (or (>= (- y8 0.0969269463) y4))))) 
(and (or (<= (+ x5 0.1823111915) x6) (or (<= (+ x6 0.6909444319) x5) (or (>= (- y5 0.6178741224) y6) (or (>= (- y6 0.5900217482) y5))))) 
(and (or (<= (+ x5 0.1823111915) x7) (or (<= (+ x7 0.0255905187) x5) (or (>= (- y5 0.6178741224) y7) (or (>= (- y7 0.5089242256) y5))))) 
(and (or (<= (+ x5 0.1823111915) x8) (or (<= (+ x8 0.7402855025) x5) (or (>= (- y5 0.6178741224) y8) (or (>= (- y8 0.0969269463) y5))))) 
(and (or (<= (+ x6 0.6909444319) x7) (or (<= (+ x7 0.0255905187) x6) (or (>= (- y6 0.5900217482) y7) (or (>= (- y7 0.5089242256) y6))))) 
(and (or (<= (+ x6 0.6909444319) x8) (or (<= (+ x8 0.7402855025) x6) (or (>= (- y6 0.5900217482) y8) (or (>= (- y8 0.0969269463) y6))))) 
(and (or (<= (+ x7 0.0255905187) x8) (or (<= (+ x8 0.7402855025) x7) (or (>= (- y7 0.5089242256) y8) (or (>= (- y8 0.0969269463) y7))))) ))))))))))))))))))))))))))))))))))))))))))))))))))))))))))))))))))))))))))))))))))))))))))))))))))))))))
(minimize c)
(check-sat)
(get-objectives)
(exit)
